c SAT Generator for power-law distributed variable frequencies
c -g u -v 20 -c 91 -k 3 -p 2.750000 -b 3.200000 -f /home/schmidt/Devel/ni-kop-sat/data/ensemble/ruf20-91/ruf20-91-461 -u 1 -U 1 -s 237964351
p cnf 20 91
-3 -7 -11 0
-12 -15 -16 0
-5 9 -18 0
-4 11 -17 0
5 -11 18 0
-7 -12 -20 0
-5 -14 -20 0
9 -15 20 0
-1 8 15 0
14 16 19 0
4 7 -19 0
7 -8 20 0
-8 -11 -20 0
-6 -13 20 0
-1 -4 -14 0
-2 -7 -15 0
-3 -12 15 0
-17 -19 20 0
4 -13 -18 0
9 -15 -20 0
-6 -7 -9 0
6 -10 18 0
-8 -10 12 0
7 -14 20 0
7 16 20 0
-3 -6 -11 0
1 10 19 0
-1 -5 -8 0
-2 6 20 0
-12 15 19 0
-8 9 -14 0
8 14 17 0
3 14 16 0
3 -11 -13 0
1 -11 17 0
-6 -13 -18 0
-3 4 -11 0
2 -13 -20 0
-1 10 17 0
8 -13 14 0
-1 -8 20 0
3 13 15 0
-1 -2 7 0
-3 4 -12 0
-11 -18 -20 0
-3 -18 19 0
2 10 -14 0
10 -17 18 0
5 9 -19 0
4 -6 15 0
-9 11 20 0
7 13 -14 0
6 -10 -13 0
-7 -12 -14 0
4 13 -20 0
11 14 19 0
3 4 -15 0
-7 11 16 0
-9 -10 -17 0
-5 -8 20 0
-5 -17 -20 0
-2 9 -14 0
5 6 -16 0
1 8 16 0
-14 -19 -20 0
7 -14 17 0
9 -16 19 0
-3 7 -15 0
-5 16 18 0
3 13 18 0
-6 -9 15 0
-3 -12 -15 0
-2 5 9 0
-3 4 19 0
2 3 16 0
6 8 9 0
5 12 -13 0
2 5 17 0
-12 15 16 0
14 -15 18 0
-6 -9 -14 0
1 -11 16 0
-4 -13 15 0
-4 -5 20 0
1 7 -13 0
5 7 16 0
-11 15 17 0
4 18 -19 0
5 -8 12 0
9 -17 19 0
-6 -13 -19 0
